200
120
100
100
99
99
98
97
97
96
96
95
95
93
92
92
91
88
88
88
87
86
86
86
85
85
83
83
83
82
82
82
82
81
81
81
81
81
81
80
80
79
78
78
78
77
77
77
75
75
74
73
73
72
72
72
72
72
72
71
71
71
70
70
69
69
69
68
67
66
66
65
65
64
64
64
63
63
63
63
62
61
61
61
61
60
60
60
59
59
58
57
56
55
55
54
54
54
53
53
53
53
53
52
52
52
50
48
48
46
46
46
46
45
44
44
43
43
43
43
43
42
42
42
42
40
40
40
39
38
36
36
36
36
36
36
32
32
32
31
31
30
30
28
28
27
27
27
26
26
25
25
25
24
24
23
22
22
22
21
21
21
20
20
20
20
20
19
19
19
18
18
18
18
16
16
15
13
13
12
11
11
10
10
9
9
8
8
8
7
7
6
5
5
4
3
3
2
2
2
2
2
